173246.0
171020.0
169788.0
172799.0
173547.0
174488.0
174207.0
172159.0
169622.0
168549.0
168294.0
173976.0
168918.0
169016.0
170067.0
169138.0
169412.0
170759.0
171648.0
171103.0
168878.0
170598.0
171396.0
171946.0
173977.0
169468.0
169256.0
173530.0
169959.0
168305.0
166769.0
173904.0
171660.0
169050.0
170995.0
169611.0
173050.0
171993.0
170044.0
169511.0
170808.0
172301.0
170214.0
171787.0
169371.0
169097.0
170162.0
170681.0
169373.0
168422.0